
<<< setup



Le degré maximum du graphe est : 9


Le nombre d'arrètes du graphe simple correspondant est : 39

<<< generate

Tried aggregator 1 time.
MIP Presolve eliminated 133 rows and 68 columns.
MIP Presolve modified 168 coefficients.
Aggregator did 9 substitutions.
Reduced MIP has 21 rows, 13 columns, and 48 nonzeros.
Reduced MIP has 9 binaries, 4 generals, 0 SOSs, and 0 indicators.
Presolve time =    0,00 sec.
Clique table members: 8.
MIP emphasis: balance optimality and feasibility.
MIP search method: dynamic search.
Parallel mode: deterministic, using up to 2 threads.
Root relaxation solution time =    0,00 sec.

        Nodes                                         Cuts/
   Node  Left     Objective  IInf  Best Integer     Best Node    ItCnt     Gap

      0     0        7,0000     1                      7,0000        4         
*     0+    0                            7,0000        7,0000        4    0,00%
      0     0        cutoff              7,0000        7,0000        4    0,00%

Root node processing (before b&c):
  Real time             =    0,00
Parallel b&c, 2 threads:
  Real time             =    0,00
  Sync time (average)   =    0,00
  Wait time (average)   =    0,00
                          -------
Total (root+branch&cut) =    0,00 sec.

<<< solve


OBJECTIVE: 7
coloration : [1 2 3 4 5 6 7 2 5 6]

<<< post process


<<< done

